N=30;
T=25;
V=[
9 
9 
9 
9 
9
];
B=2250.0;
bh=8.0;
bl=1.0;
E=5;

qt=[
30
30
30
30
30
30
30
30
30
30
30
30
30
30
30
30
30
30
30
30
30
30
30
30
30
30
30
30
30
30
];

qv=[
20
20
20
20
20
20
20
20
20
20
20
20
20
20
20
20
20
20
20
20
20
20
20
20
20
20
20
20
20
20
];
